# Solution for model r10_t27_m6_9
# Finished Task: 26 / 27
# Makespan: 653.0, Total Distance: 1706.0, Total Time: 0.1133
# R O S F
0 0 12 0.0 0.0
1 1 15 0.0 0.0
2 2 17 0.0 0.0
3 3 25 0.0 0.0
4 4 33 0.0 0.0
5 5 22 0.0 0.0
6 6 26 0.0 0.0
7 7 11 0.0 0.0
8 8 30 0.0 0.0
9 9 21 0.0 0.0
10 4 -1 395.0 430.0
11 7 29 83.0 110.0
12 0 31 393.0 417.0
13 7 -1 459.0 496.0
14 2 -1 531.0 558.0
15 1 34 303.0 328.0
16 -1 -1 -1.0 -1.0
17 2 14 417.0 437.0
18 8 24 169.0 203.0
19 3 -1 558.0 579.0
20 5 -1 579.0 614.0
21 9 35 222.0 246.0
22 5 28 87.0 107.0
23 1 -1 614.0 653.0
24 8 27 220.0 256.0
25 3 19 437.0 459.0
26 6 32 93.0 132.0
27 8 -1 343.0 371.0
28 5 20 192.0 217.0
29 7 13 151.0 181.0
30 8 18 103.0 133.0
31 0 -1 493.0 531.0
32 6 36 314.0 343.0
33 4 10 163.0 202.0
34 1 23 459.0 493.0
35 9 -1 387.0 414.0
36 6 -1 364.0 399.0
